Minimize
  - 30 y_0 - 63 y_1 - 19 y_2 - 28 y_3 - 38 y_4 - 28 y_5 - 24 y_6 - 29 y_7
   - 45 y_8 - 48 y_9 - 19 y_10 - 56 y_11 - 44 y_12 - 18 y_13 - 50 y_14
   - 45 y_15 - 42 y_16 - 38 y_17 - 48 y_18 - 51 y_19 - 37 y_20 - 46 y_22
   - 26 y_23 - 43 y_24 - 47 y_25 - 40 y_26 - 9 y_27 - 13 y_28 - 36 y_29
   - 35 y_30 - 21 y_31 - 48 y_32 - 56 y_33 - 53 y_34 - 40 y_35 - 15 y_36
   - 50 y_37 - 17 y_38 - 57 y_39 - 50 y_40 - 19 y_41 - 28 y_42 - 42 y_43
   - 28 y_44 - 47 y_45 - 26 y_46 - 37 y_47 - 24 y_48 - 61 y_49 - 35 y_50
   - 44 y_51 - 43 y_52 - 24 y_53 - 8 y_54 - 23 y_55 - 28 y_56 - 52 y_57
   - 44 y_58 - 38 y_59 - 31 y_60 - 48 y_61 - 36 y_62 - 54 y_63 - 32 y_64
   - 31 y_65 - 33 y_66 - 34 y_67 - 46 y_68 - 34 y_69 - 48 y_70 - 31 y_71
   - 31 y_72 - 52 y_73 - 46 y_74 - 30 y_75 - 55 y_76 - 35 y_77 - 49 y_78
   - 43 y_79 - 21 y_80 - 11 y_81 - 46 y_82 - 51 y_83 - 16 y_84 - 40 y_85
   - 53 y_86 - 41 y_87 - 31 y_88 - 51 y_89 - 50 y_90 - 36 y_91 - 15 y_92
   - 17 y_93 - 38 y_94 - 20 y_95 - 17 y_96 - 32 y_97 - 11 y_98 - 36 y_99
   + 3585 Constant
Subject To
 c_0: y_82 = 1
 c_1_0: y_0 + y_23 + y_66 >= 1
 c_1_1: y_1 + y_49 >= 1
 c_1_2: y_2 + y_38 + y_41 + y_80 + y_95 >= 1
 c_1_3: y_3 + y_56 + y_65 + y_71 >= 1
 c_1_4: y_4 + y_16 + y_29 + y_50 >= 1
 c_1_5: y_5 + y_42 >= 1
 c_1_6: y_6 + y_23 + y_31 + y_42 + y_48 >= 1
 c_1_7: y_7 + y_46 >= 1
 c_1_8: y_8 + y_24 >= 1
 c_1_9: y_9 + y_68 + y_78 + y_83 + y_89 >= 1
 c_1_10: y_10 + y_55 + y_84 + y_93 >= 1
 c_1_11: y_11 + y_57 >= 1
 c_1_12: y_12 + y_61 >= 1
 c_1_13: y_13 + y_31 + y_36 + y_41 + y_84 + y_93 + y_96 >= 1
 c_1_14: y_14 >= 1
 c_1_15: y_15 + y_25 + y_32 + y_35 + y_45 + y_58 + y_70 + y_87 >= 1
 c_1_16: y_4 + y_16 + y_24 + y_43 >= 1
 c_1_17: y_17 + y_20 + y_26 + y_85 >= 1
 c_1_18: y_18 + y_25 + y_32 + y_45 + y_57 + y_68 >= 1
 c_1_19: y_19 + y_37 + y_82 >= 1
 c_1_20: y_17 + y_20 + y_26 + y_29 + y_50 >= 1
 c_1_21: y_21 >= 1
 c_1_22: y_22 + y_52 + y_74 >= 1
 c_1_23: y_0 + y_6 + y_23 + y_31 + y_48 >= 1
 c_1_24: y_8 + y_16 + y_24 >= 1
 c_1_25: y_15 + y_18 + y_25 + y_32 + y_45 >= 1
 c_1_26: y_17 + y_20 + y_26 + y_43 + y_51 + y_79 >= 1
 c_1_27: y_27 + y_98 >= 1
 c_1_28: y_28 + y_36 + y_54 + y_81 >= 1
 c_1_29: y_4 + y_20 + y_29 + y_50 >= 1
 c_1_30: y_30 + y_35 + y_65 + y_66 + y_94 >= 1
 c_1_31: y_6 + y_13 + y_23 + y_31 + y_48 + y_55 + y_93 + y_96 >= 1
 c_1_32: y_15 + y_18 + y_25 + y_32 + y_45 + y_70 >= 1
 c_1_33: y_33 + y_89 >= 1
 c_1_34: y_34 + y_61 + y_86 >= 1
 c_1_35: y_15 + y_30 + y_35 + y_58 + y_85 + y_87 >= 1
 c_1_36: y_13 + y_28 + y_36 + y_41 + y_81 + y_96 >= 1
 c_1_37: y_19 + y_37 + y_74 + y_82 >= 1
 c_1_38: y_2 + y_38 + y_95 >= 1
 c_1_39: y_39 >= 1
 c_1_40: y_40 + y_90 >= 1
 c_1_41: y_2 + y_13 + y_36 + y_41 + y_80 + y_95 >= 1
 c_1_42: y_5 + y_6 + y_42 + y_48 >= 1
 c_1_43: y_16 + y_26 + y_43 + y_51 + y_79 >= 1
 c_1_44: y_44 + y_64 + y_72 + y_75 + y_88 + y_97 >= 1
 c_1_45: y_15 + y_18 + y_25 + y_32 + y_45 + y_70 >= 1
 c_1_46: y_7 + y_46 + y_53 >= 1
 c_1_47: y_47 + y_59 + y_67 + y_91 + y_99 >= 1
 c_1_48: y_6 + y_23 + y_31 + y_42 + y_48 >= 1
 c_1_49: y_1 + y_49 >= 1
 c_1_50: y_4 + y_20 + y_29 + y_50 + y_60 >= 1
 c_1_51: y_26 + y_43 + y_51 + y_79 >= 1
 c_1_52: y_22 + y_52 + y_74 >= 1
 c_1_53: y_46 + y_53 >= 1
 c_1_54: y_28 + y_54 + y_81 + y_98 >= 1
 c_1_55: y_10 + y_31 + y_55 >= 1
 c_1_56: y_3 + y_56 + y_65 + y_71 >= 1
 c_1_57: y_11 + y_18 + y_57 + y_83 >= 1
 c_1_58: y_15 + y_35 + y_58 + y_70 + y_85 + y_87 >= 1
 c_1_59: y_47 + y_59 + y_62 + y_67 + y_77 + y_99 >= 1
 c_1_60: y_50 + y_60 >= 1
 c_1_61: y_12 + y_34 + y_61 + y_86 >= 1
 c_1_62: y_59 + y_62 + y_77 >= 1
 c_1_63: y_63 + y_76 >= 1
 c_1_64: y_44 + y_64 + y_69 + y_72 + y_75 + y_88 + y_97 >= 1
 c_1_65: y_3 + y_30 + y_56 + y_65 + y_66 + y_71 >= 1
 c_1_66: y_0 + y_30 + y_65 + y_66 >= 1
 c_1_67: y_47 + y_59 + y_67 + y_77 + y_91 + y_99 >= 1
 c_1_68: y_9 + y_18 + y_68 + y_78 >= 1
 c_1_69: y_64 + y_69 + y_72 + y_75 + y_88 + y_97 >= 1
 c_1_70: y_15 + y_32 + y_45 + y_58 + y_70 >= 1
 c_1_71: y_3 + y_56 + y_65 + y_71 >= 1
 c_1_72: y_44 + y_64 + y_69 + y_72 + y_75 + y_88 + y_97 >= 1
 c_1_73: y_73 + y_89 >= 1
 c_1_74: y_22 + y_37 + y_52 + y_74 + y_82 >= 1
 c_1_75: y_44 + y_64 + y_69 + y_72 + y_75 + y_88 + y_97 >= 1
 c_1_76: y_63 + y_76 >= 1
 c_1_77: y_59 + y_62 + y_67 + y_77 + y_99 >= 1
 c_1_78: y_9 + y_68 + y_78 + y_83 + y_89 >= 1
 c_1_79: y_26 + y_43 + y_51 + y_79 >= 1
 c_1_80: y_2 + y_41 + y_80 + y_95 >= 1
 c_1_81: y_28 + y_36 + y_54 + y_81 >= 1
 c_1_82: y_19 + y_37 + y_74 + y_82 >= 1
 c_1_83: y_9 + y_57 + y_78 + y_83 + y_89 >= 1
 c_1_84: y_10 + y_13 + y_84 + y_93 + y_96 >= 1
 c_1_85: y_17 + y_35 + y_58 + y_85 + y_87 >= 1
 c_1_86: y_34 + y_61 + y_86 >= 1
 c_1_87: y_15 + y_35 + y_58 + y_85 + y_87 >= 1
 c_1_88: y_44 + y_64 + y_69 + y_72 + y_75 + y_88 + y_97 >= 1
 c_1_89: y_9 + y_33 + y_73 + y_78 + y_83 + y_89 >= 1
 c_1_90: y_40 + y_90 >= 1
 c_1_91: y_47 + y_67 + y_91 + y_99 >= 1
 c_1_92: y_92 >= 1
 c_1_93: y_10 + y_13 + y_31 + y_84 + y_93 + y_96 >= 1
 c_1_94: y_30 + y_94 >= 1
 c_1_95: y_2 + y_38 + y_41 + y_80 + y_95 >= 1
 c_1_96: y_13 + y_31 + y_36 + y_84 + y_93 + y_96 >= 1
 c_1_97: y_44 + y_64 + y_69 + y_72 + y_75 + y_88 + y_97 >= 1
 c_1_98: y_27 + y_54 + y_98 >= 1
 c_1_99: y_47 + y_59 + y_67 + y_77 + y_91 + y_99 >= 1
Bounds
 Constant = 1
Binaries
 y_0 y_1 y_2 y_3 y_4 y_5 y_6 y_7 y_8 y_9 y_10 y_11 y_12 y_13 y_14 y_15 y_16
 y_17 y_18 y_19 y_20 y_21 y_22 y_23 y_24 y_25 y_26 y_27 y_28 y_29 y_30 y_31
 y_32 y_33 y_34 y_35 y_36 y_37 y_38 y_39 y_40 y_41 y_42 y_43 y_44 y_45 y_46
 y_47 y_48 y_49 y_50 y_51 y_52 y_53 y_54 y_55 y_56 y_57 y_58 y_59 y_60 y_61
 y_62 y_63 y_64 y_65 y_66 y_67 y_68 y_69 y_70 y_71 y_72 y_73 y_74 y_75 y_76
 y_77 y_78 y_79 y_80 y_81 y_82 y_83 y_84 y_85 y_86 y_87 y_88 y_89 y_90 y_91
 y_92 y_93 y_94 y_95 y_96 y_97 y_98 y_99
End
